************************************************************************
file with basedata            : md358_.bas
initial value random generator: 741109707
************************************************************************
projects                      :  1
jobs (incl. supersource/sink ):  22
horizon                       :  157
RESOURCES
  - renewable                 :  2   R
  - nonrenewable              :  2   N
  - doubly constrained        :  0   D
************************************************************************
PROJECT INFORMATION:
pronr.  #jobs rel.date duedate tardcost  MPM-Time
    1     20      0       27       18       27
************************************************************************
PRECEDENCE RELATIONS:
jobnr.    #modes  #successors   successors
   1        1          3           2   3   4
   2        3          3           5   7  11
   3        3          2           6  11
   4        3          2           9  13
   5        3          3           6  12  17
   6        3          3           8  13  15
   7        3          1          10
   8        3          3           9  10  21
   9        3          1          14
  10        3          2          16  20
  11        3          2          12  17
  12        3          3          13  14  15
  13        3          2          18  21
  14        3          1          16
  15        3          3          16  20  21
  16        3          1          18
  17        3          1          20
  18        3          1          19
  19        3          1          22
  20        3          1          22
  21        3          1          22
  22        1          0        
************************************************************************
REQUESTS/DURATIONS:
jobnr. mode duration  R 1  R 2  N 1  N 2
------------------------------------------------------------------------
  1      1     0       0    0    0    0
  2      1     3       9    6    7    8
         2     3       6    7    8    8
         3     5       1    3    6    7
  3      1     2       8    6    7    3
         2     4       6    6    6    3
         3     8       4    5    4    3
  4      1     1       4    2    8    7
         2     4       4    1    8    6
         3     6       4    1    8    4
  5      1     1       3    6    8    7
         2     3       3    6    7    5
         3     7       2    6    5    4
  6      1     3       8    9    9    6
         2    10       5    9    6    3
         3    10       6    9    5    4
  7      1     5       9    3    9    5
         2     6       6    2    7    3
         3    10       5    2    7    3
  8      1     3      10   10    8    6
         2     9       8    9    5    4
         3     9       8   10    3    3
  9      1     2       7    6    8    9
         2     7       7    5    6    8
         3     7       6    5    7    8
 10      1     2       4    8    6    2
         2     3       4    7    5    2
         3     8       3    6    5    2
 11      1     1       7    8    8    2
         2     2       4    7    8    1
         3     5       4    7    4    1
 12      1     6       9    6    4    7
         2     9       8    6    4    6
         3    10       6    6    4    4
 13      1     4       8    4    9    8
         2     9       7    3    9    6
         3     9       7    3    8    7
 14      1     2       9    7    6    7
         2     6       6    4    4    3
         3     6       4    3    6    7
 15      1     1       9    5    7    9
         2     2       8    5    5    5
         3     7       7    5    4    5
 16      1     3       4    7    6    6
         2     6       3    7    4    4
         3     6       4    7    4    3
 17      1     2       6    9    8    7
         2     6       5    7    7    1
         3     6       2    9    6    4
 18      1     7       8    7    2    5
         2     8       7    6    1    3
         3     9       7    4    1    1
 19      1     3       3    6    8    2
         2     5       2    3    6    2
         3     9       1    1    6    2
 20      1     8       4    7    9    8
         2     9       2    5    9    6
         3    10       1    3    9    2
 21      1     5       8    6    7    8
         2     6       6    5    5    6
         3    10       3    4    5    4
 22      1     0       0    0    0    0
************************************************************************
RESOURCEAVAILABILITIES:
  R 1  R 2  N 1  N 2
   20   18  114   82
************************************************************************
MAXIMAL LAGS:
from  to  type  delay
    1   22   ES      0
    1    2   ES      0
    2   22   ES      0
    1    3   ES      0
    3   22   ES      0
    1    4   ES      0
    4   22   ES      0
    1    5   ES      0
    5   22   ES      0
    1    6   ES      0
    6   22   ES      0
    1    7   ES      0
    7   22   ES      0
    1    8   ES      0
    8   22   ES      0
    1    9   ES      0
    9   22   ES      0
    1   10   ES      0
   10   22   ES      0
    1   11   ES      0
   11   22   ES      0
    1   12   ES      0
   12   22   ES      0
    1   13   ES      0
   13   22   ES      0
    1   14   ES      0
   14   22   ES      0
    1   15   ES      0
   15   22   ES      0
    1   16   ES      0
   16   22   ES      0
    1   17   ES      0
   17   22   ES      0
    1   18   ES      0
   18   22   ES      0
    1   19   ES      0
   19   22   ES      0
    1   20   ES      0
   20   22   ES      0
    1   21   ES      0
   21   22   ES      0
    1   22   ES      0
    2    5   SS     -8
    2    5   SE    -10
    2    5   ES    -11
    2    5   EE     -8
    2    7   SS     10
    2    7   SE     -4
    2    7   ES     -8
    2    7   EE     -6
    2   11   SS     -3
    2   11   SE      9
    2   11   ES     -3
    2   11   EE      3
    3    6   SS     -6
    3    6   SE      9
    3    6   ES    -11
    3    6   EE     -1
    3   11   SS     11
    3   11   SE      9
    3   11   ES      3
    3   11   EE     10
    4    9   SS      9
    4    9   SE      2
    4    9   ES      3
    4    9   EE     -9
    4   13   SS     12
    4   13   SE      7
    4   13   ES     10
    4   13   EE      1
    5    6   SS     -9
    5    6   SE      9
    5    6   ES      6
    5    6   EE      6
    5   12   SS      8
    5   12   SE      3
    5   12   ES     -9
    5   12   EE      0
    5   17   SS     -1
    5   17   SE     10
    5   17   ES      7
    5   17   EE      1
    6    8   SS     -1
    6    8   SE     12
    8    6   SE      0
    6    8   ES      0
    6    8   EE      0
    6   13   SS     12
    6   13   SE      2
    6   13   ES      1
    6   13   EE     -3
    6   15   SS    -11
    6   15   SE      7
    6   15   ES      7
    6   15   EE     11
    7   10   SS      9
    7   10   SE      0
    7   10   ES      4
    7   10   EE     -5
    8    9   SS     -6
    8    9   SE     -3
    8    9   ES     12
    8    9   EE     -4
    8   10   SS    -12
    8   10   SE    -12
    8   10   ES      7
    8   10   EE     10
    8   21   SS     -1
    8   21   SE     -8
    8   21   ES     -7
    8   21   EE     -3
    9   14   SS     -8
    9   14   SE      9
    9   14   ES      0
    9   14   EE      9
   10   16   SS     10
   10   16   SE     -1
   10   16   ES     -6
   10   16   EE     12
   10   20   SS      2
   10   20   SE      7
   10   20   ES     -6
   10   20   EE     10
   11   12   SS     -7
   11   12   SE     -8
   11   12   ES    -10
   11   12   EE      6
   11   17   SS    -10
   11   17   SE     12
   11   17   ES     -4
   11   17   EE     -5
   12   13   SS      7
   12   13   SE     10
   12   13   ES    -12
   12   13   EE      2
   12   14   SS    -12
   12   14   SE     -1
   12   14   ES     10
   12   14   EE     -3
   12   15   SS      3
   12   15   SE      9
   12   15   ES     -5
   12   15   EE      1
   13   18   SS    -11
   13   18   SE     12
   13   18   ES     -9
   13   18   EE     -2
   13   21   SS      3
   13   21   SE      8
   13   21   ES      6
   13   21   EE     -9
   14   16   SS    -10
   14   16   SE     -2
   14   16   ES    -11
   14   16   EE     11
   15   16   SS     10
   15   16   SE     -9
   15   16   ES    -11
   15   16   EE    -10
   15   20   SS      0
   15   20   SE     10
   15   20   ES     -8
   15   20   EE      1
   15   21   SS    -12
   15   21   SE    -12
   15   21   ES      4
   15   21   EE    -11
   16   18   SS     -8
   16   18   SE      0
   16   18   ES     -1
   16   18   EE      5
   17   20   SS      6
   17   20   SE     10
   17   20   ES     -6
   17   20   EE      9
   18   19   SS     -4
   18   19   SE      2
   18   19   ES     -2
   18   19   EE      7
************************************************************************
